n = 54;
rows = 122;
supports = [|
  {1},2..9,
 |{1},47..54,
 |{2},{1},
 |{2},3..10,
 |{2},48..54,
 |{3},1..2,
 |{3},4..11,
 |{3},49..54,
 |{4},1..3,
 |{4},5..12,
 |{4},50..54,
 |{5},1..4,
 |{5},6..13,
 |{5},51..54,
 |{6},1..5,
 |{6},7..14,
 |{6},52..54,
 |{7},1..6,
 |{7},8..15,
 |{7},53..54,
 |{8},1..7,
 |{8},9..16,
 |{8},{54},
 |{9},1..8,
 |{9},10..17,
 |{10},2..9,
 |{10},11..18,
 |{11},3..10,
 |{11},12..19,
 |{12},4..11,
 |{12},13..20,
 |{13},5..12,
 |{13},14..21,
 |{14},6..13,
 |{14},15..22,
 |{15},7..14,
 |{15},16..23,
 |{16},8..15,
 |{16},17..24,
 |{17},9..16,
 |{17},18..25,
 |{18},10..17,
 |{18},19..26,
 |{19},11..18,
 |{19},20..27,
 |{20},12..19,
 |{20},21..28,
 |{21},13..20,
 |{21},22..29,
 |{22},14..21,
 |{22},23..30,
 |{23},15..22,
 |{23},24..31,
 |{24},16..23,
 |{24},25..32,
 |{25},17..24,
 |{25},26..33,
 |{26},18..25,
 |{26},27..34,
 |{27},19..26,
 |{27},28..35,
 |{28},20..27,
 |{28},29..36,
 |{29},21..28,
 |{29},30..37,
 |{30},22..29,
 |{30},31..38,
 |{31},23..30,
 |{31},32..39,
 |{32},24..31,
 |{32},33..40,
 |{33},25..32,
 |{33},34..41,
 |{34},26..33,
 |{34},35..42,
 |{35},27..34,
 |{35},36..43,
 |{36},28..35,
 |{36},37..44,
 |{37},29..36,
 |{37},38..45,
 |{38},30..37,
 |{38},39..46,
 |{39},31..38,
 |{39},40..47,
 |{40},32..39,
 |{40},41..48,
 |{41},33..40,
 |{41},42..49,
 |{42},34..41,
 |{42},43..50,
 |{43},35..42,
 |{43},44..51,
 |{44},36..43,
 |{44},45..52,
 |{45},37..44,
 |{45},46..53,
 |{46},38..45,
 |{46},47..54,
 |{47},39..46,
 |{47},48..54,
 |{47},{1},
 |{48},40..47,
 |{48},49..54,
 |{48},1..2,
 |{49},41..48,
 |{49},50..54,
 |{49},1..3,
 |{50},42..49,
 |{50},51..54,
 |{50},1..4,
 |{51},43..50,
 |{51},52..54,
 |{51},1..5,
 |{52},44..51,
 |{52},53..54,
 |{52},1..6,
 |{53},45..52,
 |{53},{54},
 |{53},1..7,
 |{54},46..53,
 |{54},1..8 |];

t = 124;

indexes = [|
    0,2,
  | 0,6,
  | 0,10,
  | 0,17,
  | 0,31,
  | 0,43,
  | 0,44,
  | 0,46,
  | 0,49,
  | 1,17,
  | 1,40,
  | 2,5,
  | 2,14,
  | 2,26,
  | 2,31,
  | 2,43,
  | 2,46,
  | 2,52,
  | 3,9,
  | 3,33,
  | 3,48,
  | 4,8,
  | 4,25,
  | 4,28,
  | 4,49,
  | 5,14,
  | 5,26,
  | 6,25,
  | 6,46,
  | 6,49,
  | 7,13,
  | 7,27,
  | 7,32,
  | 7,34,
  | 8,29,
  | 8,34,
  | 9,33,
  | 9,48,
  | 10,11,
  | 10,45,
  | 10,46,
  | 10,48,
  | 10,51,
  | 11,45,
  | 11,46,
  | 12,16,
  | 12,23,
  | 12,24,
  | 12,36,
  | 12,38,
  | 12,42,
  | 13,22,
  | 13,29,
  | 13,32,
  | 14,18,
  | 14,19,
  | 14,21,
  | 14,26,
  | 14,52,
  | 15,18,
  | 15,27,
  | 15,35,
  | 15,37,
  | 15,47,
  | 15,50,
  | 16,24,
  | 16,36,
  | 16,38,
  | 16,45,
  | 16,53,
  | 17,20,
  | 17,40,
  | 17,44,
  | 17,46,
  | 18,19,
  | 18,31,
  | 18,35,
  | 18,43,
  | 18,47,
  | 20,46,
  | 21,26,
  | 21,30,
  | 21,52,
  | 22,29,
  | 23,42,
  | 23,50,
  | 24,36,
  | 24,38,
  | 24,50,
  | 24,53,
  | 25,28,
  | 25,46,
  | 26,28,
  | 26,30,
  | 27,34,
  | 27,37,
  | 27,50,
  | 28,30,
  | 29,34,
  | 31,43,
  | 31,46,
  | 32,35,
  | 32,37,
  | 33,39,
  | 33,41,
  | 35,37,
  | 35,47,
  | 36,38,
  | 36,50,
  | 37,50,
  | 38,42,
  | 38,50,
  | 39,41,
  | 39,44,
  | 39,46,
  | 42,50,
  | 43,46,
  | 44,46,
  | 45,46,
  | 45,53,
  | 46,48,
  | 46,51,
  | 48,51,
  | 50,53 |];

